150
[30,31,32,33,34,35,36,37,38,40,41,42,43,44,45,46,47,48,49,50,51,52,53,54,55,56,57,58,59,60,61,62,63,64,65,66,67,69,71,72,73,74,75,76,77,78,79,81,82,83,84,86,87,88,89,90,91,92,93,94,95,96,97,98,99,100,101,102,103,104,105,106,107,108,109,110,111,112,113,114,115,116,117,118,119,120]
[3,3,4,5,3,4,5,1,2,2,4,6,1,1,4,4,4,4,6,6,5,6,4,5,5,3,5,4,1,3,3,6,4,6,2,3,3,2,6,4,2,4,4,5,2,1,5,3,2,2,2,7,7,4,10,1,4,4,3,3,2,2,8,2,4,2,1,1,4,2,3,2,6,2,1,3,3,2,2,1,3,3,5,2,4,3]
